Route #1: 35 46 31
Route #2: 19 97 27
Route #3: 14 49 6 37 87
Route #4: 25 65 78 42 28
Route #5: 80 94 56 21
Route #6: 38 47 26 48 96 64 34
Route #7: 75 93
Route #8: 8 17
Route #9: 63 77 3
Route #10: 32 33 53 73 95 24
Route #11: 66 84 90 68
Route #12: 71 62 99 98 89
Route #13: 52 91 50
Route #14: 23 61 100
Route #15: 58 12 5
Route #16: 15 22 41 20
Route #17: 30 85 11 79
Route #18: 1 70 54
Route #19: 44 67 88 40
Route #20: 81 51 83
Route #21: 76 55 16 69
Route #22: 74 13 4
Route #23: 18 10 39
Route #24: 7 2 45 43 29 36 72 57
Route #25: 82 60 59
Route #26: 86 9 92
Cost 27591.0000
Time 16.0003